NAME : problems/40-tsp/instance-15.tsp
COMMENT : No Comment
TYPE : TSP
DIMENSION: 40
EDGE_WEIGHT_TYPE : EUC_2D
NODE_COORD_SECTION
1 5618 8352 
2 6277 4361 
3 7884 7489 
4 7133 9889 
5 8302 3660 
6 7743 3867 
7 2057 8638 
8 9273 335 
9 9117 494 
10 1610 7337 
11 9402 6644 
12 8809 2006 
13 6781 4330 
14 6718 3115 
15 3402 5268 
16 9927 74 
17 5201 9175 
18 4611 5306 
19 1749 3591 
20 9434 4774 
21 9283 9819 
22 87 7760 
23 2545 7936 
24 2415 353 
25 1605 8302 
26 9363 1282 
27 3930 3678 
28 3609 8411 
29 9996 395 
30 8289 32 
31 2428 5484 
32 1825 2142 
33 7338 9276 
34 3915 7294 
35 4388 2159 
36 2511 2517 
37 8351 7440 
38 5378 1675 
39 7554 9460 
40 6122 4183 
EOF
